out/bwp_10_7_1_lp.out
2
0 0    0 0
3 0    3 0
4 0    4 0
0 1    0 1
8 0    9 0
1 -0    2 1
5 -0    6 1
